proyfinal/src/viki/013/andrea/andrea-localstore/experimentInOfficeAgust.take6/worker_8/dee5ae60-60a1-4c16-8255-4e7d4ff1900c.als.cnf.out
Reading from standard input... Use '--help' for help.
============================[ Problem Statistics ]=============================
|                                                                             |
|  Number of variables:         87638                                         |
|  Number of clauses:          161767                                         |
|  Parse time:                   0.03 s                                       |
|                                                                             |
============================[ Search Statistics ]==============================
| Conflicts |          ORIGINAL         |          LEARNT          | Progress |
|           |    Vars  Clauses Literals |    Limit  Clauses Lit/Cl |          |
===============================================================================
|       100 |   62207   104555   261323 |    38336      100     13 | 29.018 % |
|       250 |   62207   104555   261323 |    42170      250     52 | 29.018 % |
|       475 |   62190   104445   261080 |    46387      377     47 | 29.038 % |
|       812 |   62174   104379   260927 |    51026      661     67 | 29.056 % |
|      1318 |   62174   104379   260927 |    56128     1167     69 | 29.056 % |
|      2077 |   62174   104379   260927 |    61741     1926     80 | 29.056 % |
|      3216 |   62174   104379   260927 |    67916     3065    112 | 29.056 % |
===============================================================================
restarts              : 18
conflicts             : 3600           (6899 /sec)
decisions             : 12851          (0.00 % random) (24627 /sec)
propagations          : 5338543        (10230563 /sec)
conflict literals     : 378025         (46.40 % deleted)
Memory used           : 26.19 MB
CPU time              : 0.521823 s

UNSATISFIABLE
